1681167922494947887505,7,1,2,02,6,1,2,014,7,1,2,03,12,1,2,012,15,1,2,02,8,1,2,011,8,1,2,012,2,1,2,013,13,1,2,015,2,1,2,05,15,1,2,013,2,1,2,05,12,1,2,04,8,1,2,010,12,1,2,04,11,1,2,06,7,1,2,09,8,1,2,011,15,1,2,011,5,1,2,012,5,1,2,015,13,1,2,011,9,1,2,03,15,1,2,02,6,1,2,08,10,1,2,010,10,1,2,014,10,1,2,01,1,1,2,02,15,1,2,04,4,1,2,01,5,1,2,05,8,1,2,015,13,1,2,015,14,1,2,012,10,1,2,09,5,1,2,015,13,1,2,06,7,1,2,015,14,1,2,03,15,1,2,04,5,1,2,013,10,1,2,09,10,1,2,012,9,1,2,010,11,1,2,07,11,1,2,013,3,1,2,01,5,1,2,09,14,1,2,0